3609
3609
3625
3625
3625
3625
3625
3625
3625
3625
3625
3625
3625
3625
3625
3625
3625
3625
3625
3625
3625
3625
3625
3641
3641
3641
3641
3641
3641
3641
3641
3641
3641
3641
3641
3641
3641
3641
3641
3641
3641
3641
3641
3641
3641
3641
3641
3641
3641
3641
3641
3641
3641
3641
3641
3644
3644
3644
3644
3644
3644
3644
3644
3644
3644
3644
3644
3644
3644
3644
3644
3644
3644
3644
3644
3644
3644
3644
3644
3644
3644
3644
3644
3644
3644
3644
3689
3689
3689
3689
3689
3689
3689
3689
3689
3689
3689
3689
3689
